DATASET = "thpack1";
INSTANCE = "065";

WIDTH = 233;
HEIGHT = 220;
LENGTH = 587;

NO_OF_SHAPES = 3;
size = [|
  55,50,26 |
  48,42,37 |
  47,34,26 |
|];

verticality = [|
  0,1,1 |
  1,1,1 |
  1,1,1 |
|];

box_count = [
  160,
  167,
  149,
];
